120
150
50
48
57
51
60
45
52
45
51
58
42
47
43
60
59
46
52
54
45
59
41
50
51
55
44
56
48
46
44
53
42
55
59
43
48
53
43
58
41
54
51
52
58
41
59
42
58
45
49
47
48
50
52
59
43
59
48
48
50
40
60
45
50
55
43
40
47
59
44
43
59
48
46
50
54
45
48
57
60
47
51
44
55
44
59
59
46
47
54
40
56
59
47
52
58
45
44
53
41
56
43
59
44
47
40
51
40
59
60
50
52
57
41
44
53
53
40
59
45
46
